Normalized Data/p04_21_normalized_splitx10_0.vrp
NAME:p04_21_NORMALIZED_splitx10_
BEST_KNOWN: 0
COMMENT: 0
DIMENSION: 601
CAPACITY: 1000
EDGE_WEIGHT_FORMAT: FUNCTION
EDGE_WEIGHT_TYPE: EXACT_2D
NODE_COORD_SECTION
1 0.00000 0.00000
2 25 -19
3 25 -19
4 25 -19
5 -3 -28
6 -3 -28
7 -3 -28
8 24 33
9 24 33
10 24 33
11 24 33
12 24 33
13 30 -14
14 30 -14
15 30 -14
16 30 -14
17 12 -8
18 12 -8
19 12 -8
20 12 -8
21 12 -8
22 36 0
23 36 0
24 -26 -20
25 -26 -20
26 -26 -20
27 -26 -20
28 26 19
29 26 19
30 5 -9
31 5 -9
32 5 -9
33 2 -17
34 2 -17
35 2 -17
36 2 -17
37 2 -17
38 2 -17
39 2 -17
40 35 -17
41 35 -17
42 32 32
43 32 32
44 32 32
45 32 32
46 32 32
47 32 32
48 32 32
49 -19 2
50 -19 2
51 -19 2
52 -19 2
53 -21 -34
54 -21 -34
55 -21 -34
56 -21 -34
57 -21 -34
58 34 -2
59 34 -2
60 34 -2
61 34 -39
62 34 -39
63 34 -39
64 34 -39
65 24 -17
66 24 -17
67 -5 1
68 -5 1
69 24 42
70 24 42
71 24 42
72 26 34
73 26 34
74 26 34
75 26 34
76 -34 -13
77 -34 -13
78 -34 -13
79 6 9
80 6 9
81 6 9
82 6 9
83 6 9
84 -12 50
85 -12 50
86 -12 50
87 -12 50
88 11 10
89 11 10
90 11 10
91 11 10
92 45 -33
93 45 -33
94 45 -33
95 -5 2
96 -5 2
97 -5 2
98 -5 2
99 -8 22
100 -8 22
101 -8 22
102 -49 16
103 -49 16
104 -49 16
105 -49 16
106 -49 16
107 45 23
108 45 23
109 45 23
110 45 23
111 45 23
112 45 23
113 -23 -45
114 -23 -45
115 -23 -45
116 -23 -45
117 -23 -45
118 35 1
119 35 1
120 35 1
121 35 1
122 44 -21
123 44 -21
124 44 -21
125 44 -21
126 40 -6
127 40 -6
128 40 -6
129 40 -6
130 40 -6
131 44 -32
132 44 -32
133 44 -32
134 44 -32
135 17 -10
136 17 -10
137 17 -10
138 17 -10
139 17 -10
140 30 19
141 30 19
142 30 19
143 30 19
144 9 47
145 9 47
146 9 47
147 9 47
148 19 15
149 19 15
150 19 15
151 19 15
152 -20 27
153 -20 27
154 -20 27
155 -20 27
156 -20 27
157 -18 -50
158 -18 -50
159 -18 -50
160 -18 -50
161 39 -3
162 39 -3
163 39 -3
164 39 -3
165 16 -47
166 16 -47
167 33 -2
168 33 -2
169 33 -2
170 33 -2
171 33 -2
172 33 -2
173 33 -2
174 18 -24
175 18 -24
176 0 48
177 0 48
178 0 48
179 0 48
180 20 24
181 20 24
182 -40 -41
183 -40 -41
184 -40 -41
185 -40 -41
186 -17 20
187 -17 20
188 -17 20
189 13 6
190 13 6
191 13 6
192 -17 11
193 -17 11
194 -17 11
195 -17 11
196 22 9
197 22 9
198 22 9
199 22 9
200 22 9
201 22 9
202 -38 1
203 -38 1
204 -38 1
205 -38 1
206 -38 1
207 25 46
208 25 46
209 -43 -45
210 -43 -45
211 -43 -45
212 -43 -45
213 -43 -45
214 -41 5
215 -41 5
216 -41 5
217 -41 5
218 -29 17
219 -29 17
220 -29 17
221 -15 27
222 -15 27
223 21 23
224 21 23
225 21 23
226 21 23
227 21 23
228 -10 -4
229 -10 -4
230 -10 -4
231 -10 -4
232 -10 -4
233 -10 -4
234 -45 22
235 -45 22
236 -45 22
237 -45 22
238 12 -37
239 12 -37
240 -34 2
241 -34 2
242 -29 -46
243 -29 -46
244 -29 -46
245 -29 -46
246 -29 -46
247 32 46
248 32 46
249 32 46
250 32 46
251 36 -23
252 36 -23
253 36 -23
254 36 -23
255 44 41
256 44 41
257 44 41
258 44 41
259 44 41
260 44 41
261 -11 29
262 -11 29
263 -11 29
264 -11 29
265 -11 29
266 -4 50
267 -4 50
268 -4 50
269 -42 28
270 -42 28
271 -42 28
272 -42 28
273 1 -26
274 1 -26
275 22 25
276 22 25
277 5 -17
278 5 -17
279 5 -17
280 5 -17
281 -6 43
282 -6 43
283 -6 43
284 -6 43
285 -6 43
286 16 30
287 16 30
288 -15 24
289 -15 24
290 -15 24
291 -3 -15
292 -3 -15
293 -6 -47
294 -6 -47
295 -6 -47
296 -6 -47
297 46 8
298 46 8
299 46 8
300 46 8
301 12 13
302 12 13
303 12 13
304 12 13
305 32 36
306 32 36
307 32 36
308 32 36
309 32 36
310 32 36
311 13 27
312 13 27
313 13 27
314 13 27
315 31 -40
316 31 -40
317 31 -40
318 31 -40
319 -31 17
320 -31 17
321 -31 17
322 -31 17
323 -31 17
324 20 -13
325 20 -13
326 20 -13
327 20 -13
328 20 -13
329 20 -13
330 -7 -24
331 -7 -24
332 -7 -24
333 -6 -9
334 -6 -9
335 -6 -9
336 -6 -9
337 -29 49
338 -29 49
339 -29 49
340 -29 49
341 -29 49
342 -29 49
343 -29 49
344 50 -5
345 50 -5
346 50 -5
347 8 1
348 8 1
349 8 1
350 6 -7
351 6 -7
352 6 -7
353 6 -7
354 6 -7
355 6 -7
356 -10 -3
357 -10 -3
358 31 -12
359 31 -12
360 31 -12
361 31 -12
362 -23 -37
363 -23 -37
364 -23 -37
365 -23 -37
366 -23 -37
367 25 49
368 25 49
369 -19 -12
370 -19 -12
371 -19 -12
372 -19 -12
373 -19 -12
374 -19 -12
375 -19 -12
376 3 -17
377 3 -17
378 -46 19
379 -46 19
380 -46 19
381 -27 1
382 -27 1
383 -27 1
384 -27 1
385 -27 1
386 -27 1
387 32 18
388 32 18
389 32 18
390 32 18
391 34 -45
392 34 -45
393 34 -45
394 34 -45
395 -22 -14
396 -22 -14
397 -22 -14
398 -22 -14
399 -22 -14
400 -22 -14
401 -36 -32
402 -36 -32
403 -46 42
404 -46 42
405 -46 42
406 -6 21
407 -6 21
408 -6 21
409 -6 21
410 -6 21
411 -6 21
412 14 12
413 14 12
414 14 12
415 50 -15
416 50 -15
417 50 -15
418 50 -15
419 -1 43
420 -1 43
421 -1 43
422 -1 43
423 -1 43
424 -1 43
425 23 32
426 23 32
427 23 32
428 -32 -25
429 -32 -25
430 -32 -25
431 -32 -25
432 -32 -25
433 -32 -25
434 -32 -25
435 10 47
436 10 47
437 10 47
438 10 47
439 10 47
440 20 -42
441 20 -42
442 20 -42
443 -26 -28
444 -26 -28
445 -26 -28
446 -42 -31
447 -42 -31
448 -42 -31
449 -42 -31
450 -40 -10
451 -40 -10
452 -40 -10
453 -40 -10
454 -40 -10
455 -40 -10
456 -40 -10
457 -18 28
458 -18 28
459 -18 28
460 -18 28
461 -18 28
462 34 -10
463 34 -10
464 34 -10
465 49 30
466 49 30
467 49 30
468 49 30
469 49 30
470 43 16
471 43 16
472 0 20
473 0 20
474 0 20
475 20 -18
476 20 -18
477 20 -18
478 20 -18
479 -23 -32
480 -23 -32
481 11 0
482 11 0
483 11 0
484 -6 -35
485 -6 -35
486 -6 -35
487 44 -48
488 44 -48
489 44 -48
490 44 -48
491 44 -48
492 26 44
493 26 44
494 26 44
495 26 44
496 26 44
497 -15 -32
498 -15 -32
499 -15 -32
500 -15 -32
501 7 30
502 7 30
503 7 30
504 7 30
505 7 30
506 5 -9
507 5 -9
508 5 -9
509 5 -9
510 5 -9
511 5 -9
512 39 40
513 39 40
514 39 40
515 39 40
516 -37 2
517 -37 2
518 -37 2
519 -37 2
520 -37 2
521 -37 2
522 42 47
523 42 47
524 42 47
525 42 47
526 42 47
527 45 24
528 45 24
529 45 24
530 45 24
531 7 44
532 7 44
533 7 44
534 7 44
535 7 44
536 7 44
537 -22 28
538 -22 28
539 45 10
540 45 10
541 45 10
542 45 10
543 45 10
544 -26 20
545 -26 20
546 -26 20
547 -26 20
548 -26 20
549 29 2
550 29 2
551 -13 41
552 -44 21
553 -44 21
554 -44 21
555 -44 21
556 -44 21
557 -44 21
558 -44 21
559 21 -34
560 21 -34
561 21 -34
562 40 14
563 40 14
564 40 14
565 40 14
566 40 14
567 18 29
568 18 29
569 18 29
570 7 -21
571 7 -21
572 7 -21
573 7 21
574 7 21
575 7 21
576 42 8
577 42 8
578 42 8
579 42 8
580 42 8
581 42 8
582 -8 35
583 -8 35
584 -8 35
585 -8 35
586 -6 40
587 -6 40
588 -2 -43
589 -2 -43
590 -2 -43
591 -46 -10
592 -46 -10
593 -46 -10
594 -46 -10
595 -46 -10
596 -34 4
597 -34 4
598 -34 4
599 -34 4
600 -34 4
601 -34 4
DEMAND_SECTION
1 0
2 200
3 100
4 50
5 200
6 200
7 10
8 200
9 10
10 10
11 10
12 10
13 200
14 50
15 10
16 10
17 100
18 50
19 10
20 10
21 10
22 200
23 50
24 200
25 200
26 50
27 10
28 200
29 200
30 100
31 50
32 10
33 200
34 200
35 50
36 10
37 10
38 10
39 10
40 200
41 100
42 200
43 200
44 50
45 10
46 10
47 10
48 10
49 100
50 10
51 10
52 10
53 200
54 10
55 10
56 10
57 10
58 200
59 10
60 10
61 200
62 100
63 50
64 10
65 200
66 200
67 100
68 50
69 200
70 50
71 10
72 200
73 10
74 10
75 10
76 200
77 50
78 10
79 200
80 100
81 50
82 10
83 10
84 100
85 10
86 10
87 10
88 200
89 10
90 10
91 10
92 200
93 50
94 10
95 200
96 100
97 50
98 10
99 200
100 200
101 10
102 200
103 200
104 50
105 10
106 10
107 200
108 200
109 10
110 10
111 10
112 10
113 200
114 100
115 50
116 10
117 10
118 200
119 10
120 10
121 10
122 200
123 100
124 50
125 10
126 100
127 10
128 10
129 10
130 10
131 100
132 50
133 10
134 10
135 200
136 10
137 10
138 10
139 10
140 200
141 100
142 50
143 10
144 100
145 50
146 10
147 10
148 100
149 50
150 10
151 10
152 200
153 100
154 10
155 10
156 10
157 200
158 100
159 10
160 10
161 200
162 50
163 10
164 10
165 200
166 50
167 200
168 100
169 50
170 10
171 10
172 10
173 10
174 200
175 100
176 200
177 10
178 10
179 10
180 200
181 50
182 200
183 200
184 10
185 10
186 200
187 50
188 10
189 200
190 100
191 10
192 200
193 50
194 10
195 10
196 200
197 100
198 10
199 10
200 10
201 10
202 100
203 50
204 10
205 10
206 10
207 200
208 100
209 200
210 100
211 10
212 10
213 10
214 200
215 200
216 50
217 10
218 200
219 200
220 100
221 200
222 100
223 200
224 200
225 10
226 10
227 10
228 200
229 100
230 50
231 10
232 10
233 10
234 200
235 200
236 10
237 10
238 200
239 100
240 200
241 50
242 100
243 10
244 10
245 10
246 10
247 200
248 100
249 50
250 10
251 200
252 200
253 50
254 10
255 100
256 50
257 10
258 10
259 10
260 10
261 200
262 200
263 10
264 10
265 10
266 200
267 50
268 10
269 200
270 100
271 10
272 10
273 200
274 10
275 200
276 200
277 200
278 100
279 10
280 10
281 200
282 100
283 50
284 10
285 10
286 200
287 100
288 100
289 50
290 10
291 200
292 200
293 200
294 10
295 10
296 10
297 200
298 10
299 10
300 10
301 200
302 200
303 10
304 10
305 100
306 50
307 10
308 10
309 10
310 10
311 100
312 50
313 10
314 10
315 200
316 100
317 10
318 10
319 200
320 50
321 10
322 10
323 10
324 200
325 100
326 10
327 10
328 10
329 10
330 100
331 50
332 10
333 200
334 50
335 10
336 10
337 200
338 200
339 50
340 10
341 10
342 10
343 10
344 200
345 200
346 10
347 200
348 100
349 50
350 200
351 50
352 10
353 10
354 10
355 10
356 200
357 200
358 200
359 100
360 10
361 10
362 200
363 50
364 10
365 10
366 10
367 200
368 100
369 200
370 200
371 50
372 10
373 10
374 10
375 10
376 200
377 50
378 100
379 50
380 10
381 200
382 100
383 10
384 10
385 10
386 10
387 200
388 10
389 10
390 10
391 200
392 100
393 50
394 10
395 200
396 200
397 50
398 10
399 10
400 10
401 200
402 100
403 200
404 10
405 10
406 200
407 200
408 50
409 10
410 10
411 10
412 200
413 200
414 100
415 100
416 50
417 10
418 10
419 200
420 200
421 50
422 10
423 10
424 10
425 100
426 50
427 10
428 200
429 200
430 50
431 10
432 10
433 10
434 10
435 100
436 50
437 10
438 10
439 10
440 200
441 10
442 10
443 200
444 200
445 50
446 100
447 50
448 10
449 10
450 200
451 200
452 50
453 10
454 10
455 10
456 10
457 100
458 10
459 10
460 10
461 10
462 200
463 10
464 10
465 200
466 50
467 10
468 10
469 10
470 200
471 50
472 100
473 50
474 10
475 200
476 200
477 10
478 10
479 200
480 10
481 200
482 100
483 10
484 100
485 50
486 10
487 200
488 100
489 10
490 10
491 10
492 100
493 10
494 10
495 10
496 10
497 200
498 100
499 50
500 10
501 200
502 50
503 10
504 10
505 10
506 100
507 50
508 10
509 10
510 10
511 10
512 200
513 50
514 10
515 10
516 200
517 100
518 10
519 10
520 10
521 10
522 200
523 100
524 10
525 10
526 10
527 100
528 50
529 10
530 10
531 100
532 50
533 10
534 10
535 10
536 10
537 100
538 50
539 200
540 100
541 10
542 10
543 10
544 100
545 10
546 10
547 10
548 10
549 200
550 10
551 200
552 200
553 200
554 50
555 10
556 10
557 10
558 10
559 200
560 10
561 10
562 200
563 200
564 10
565 10
566 10
567 200
568 10
569 10
570 200
571 200
572 100
573 100
574 10
575 10
576 200
577 100
578 10
579 10
580 10
581 10
582 100
583 50
584 10
585 10
586 200
587 50
588 200
589 200
590 50
591 200
592 100
593 50
594 10
595 10
596 200
597 100
598 10
599 10
600 10
601 10
DEPOT_SECTION
1
-1
EOF