Normalized Data/p04_21_normalized_splitx10_0.sol
600 -2 130 131 132 133 92 91 93 489 486 488 487 490 61 353 354 -19 65 64 14 13 15 12 359 358 360 357 -23 24 26 25 442 444 443 -30 508 505 375 376 32 37 38 34 33 35 36 -43 41 42 44 45 74 73 71 72 7 11 8 9 10 425 -46 47 513 514 511 512 522 521 523 524 525 247 246 249 248 -51 49 48 50 215 213 214 216 205 203 204 201 202 518 515 519 -56 55 54 362 363 364 361 365 114 112 116 115 113 157 159 156 158 -62 60 63 393 390 391 392 315 316 317 314 31 507 -70 68 69 494 491 493 492 495 206 207 366 367 -81 79 80 82 78 87 89 188 190 346 -90 88 301 303 302 300 413 412 411 348 -95 97 103 105 102 101 104 379 377 378 556 555 552 554 557 -96 94 66 67 356 231 230 232 227 229 228 -98 99 261 405 406 -110 106 109 526 467 464 468 466 465 259 258 256 254 255 257 304 309 307 305 308 306 -122 121 124 123 414 416 415 417 343 345 344 58 59 172 170 169 -128 129 126 127 125 160 161 162 163 21 22 118 117 120 119 481 -137 135 136 138 134 323 324 328 326 16 17 20 18 349 350 351 352 -149 27 28 142 140 139 141 389 387 388 386 -173 174 1 3 476 474 475 477 -180 179 274 275 426 424 566 568 567 574 573 -183 184 182 181 212 211 210 208 209 241 245 243 244 242 -185 153 151 155 152 154 220 221 287 289 288 -187 186 546 545 544 543 547 320 321 319 322 318 217 219 218 -189 196 200 195 148 150 147 223 222 225 226 224 -194 193 192 191 77 75 76 396 395 394 399 -197 199 198 564 562 563 565 561 470 469 108 107 111 527 529 528 -237 238 164 165 439 440 441 558 560 559 -269 270 268 271 234 235 236 233 553 551 -272 273 5 6 4 290 -276 278 277 279 569 571 570 506 29 510 509 -291 498 496 499 497 53 52 478 479 -325 327 252 253 250 251 39 40 461 463 462 -329 331 330 484 485 483 292 295 294 293 588 587 589 -335 332 333 334 371 370 374 372 373 368 369 355 -347 579 580 576 577 575 578 297 296 299 298 539 538 542 541 540 -383 380 385 382 384 381 239 240 597 596 595 598 599 600 -397 398 445 447 446 448 400 401 428 430 433 431 429 432 427 -403 404 402 338 336 339 341 340 337 342 537 536 457 456 458 459 460 -408 407 409 100 264 262 263 260 584 582 583 283 284 280 281 282 585 586 -410 581 550 83 86 85 84 267 265 266 421 420 423 419 422 -418 177 175 176 178 145 143 146 144 437 434 435 436 438 533 532 535 531 530 534 504 502 -451 453 449 454 452 455 450 591 592 590 594 593 517 516 520 -471 473 472 500 501 503 286 285 311 313 310 312 572 -482 480 166 168 171 167 57 549 548 0 





OBJ=
3992.865
BEST_KNOWN=
0.000